language ESSENCE' 1.0
$ Minion SolverNodes: 4
$ Minion SolverTotalTime: 0.058252
$ Minion SolverTimeOut: 0
$ Savile Row TotalTime: 0.356
letting actionFrom be [2, 4, 2, 2]
letting actionTo be [1, 1, 1, 1]
letting actionValue be [7, 4, 17, 23]
letting states be [[46, 7, 17, 23, 4], 
[7, 17, 23, 4, -1], 
[4, 17, 23, -1, -1], 
[17, 23, -1, -1, -1], 
[23, -1, -1, -1, -1]]
